\ENCODING=ISO-8859-1
\Problem name: ilog.cplex

Maximize
 obj: 866 x(0)#0 + 319 x(1)#1 + 563 x(2)#2 + 1003 x(3)#3 + 601 x(4)#4
      + 638 x(5)#5 + 870 x(6)#6 + 1033 x(7)#7 + 782 x(8)#8 + 708 x(9)#9
      + 612 x(10)#10 + 631 x(11)#11 + 837 x(12)#12 + 671 x(13)#13
      + 552 x(14)#14 + 753 x(15)#15 + 1097 x(16)#16 + 885 x(17)#17
      + 387 x(18)#18 + 757 x(19)#19 + 827 x(20)#20 + 667 x(21)#21
      + 525 x(22)#22 + 508 x(23)#23 + 910 x(24)#24 + 940 x(25)#25
      + 939 x(26)#26 + 626 x(27)#27 + 1035 x(28)#28 + 757 x(29)#29
      + 718 x(30)#30 + 883 x(31)#31 + 1155 x(32)#32 + 774 x(33)#33
      + 509 x(34)#34 + 846 x(35)#35 + 809 x(36)#36 + 561 x(37)#37
      + 636 x(38)#38 + 832 x(39)#39 + 840 x(40)#40 + 720 x(41)#41
      + 638 x(42)#42 + 512 x(43)#43 + 638 x(44)#44 + 651 x(45)#45
      + 720 x(46)#46 + 662 x(47)#47 + 745 x(48)#48 + 632 x(49)#49
      + 968 x(50)#50 + 738 x(51)#51 + 918 x(52)#52 + 541 x(53)#53
      + 864 x(54)#54 + 195 x(55)#55 + 553 x(56)#56 + 757 x(57)#57
      + 626 x(58)#58 + 719 x(59)#59 + 768 x(60)#60 + 536 x(61)#61
      + 995 x(62)#62 + 856 x(63)#63 + 906 x(64)#64 + 696 x(65)#65
      + 850 x(66)#66 + 584 x(67)#67 + 744 x(68)#68 + 1130 x(69)#69
      + 482 x(70)#70 + 1005 x(71)#71 + 348 x(72)#72 + 701 x(73)#73
      + 1077 x(74)#74 + 718 x(75)#75 + 799 x(76)#76 + 570 x(77)#77
      + 574 x(78)#78 + 565 x(79)#79 + 597 x(80)#80 + 361 x(81)#81
      + 778 x(82)#82 + 682 x(83)#83 + 358 x(84)#84 + 600 x(85)#85
      + 1066 x(86)#86 + 693 x(87)#87 + 476 x(88)#88 + 962 x(89)#89
      + 748 x(90)#90 + 559 x(91)#91 + 725 x(92)#92 + 711 x(93)#93
      + 795 x(94)#94 + 417 x(95)#95 + 674 x(96)#96 + 300 x(97)#97
      + 650 x(98)#98 + 880 x(99)#99 + 698 x(100)#100 + 508 x(101)#101
      + 982 x(102)#102 + 737 x(103)#103 + 920 x(104)#104 + 599 x(105)#105
      + 428 x(106)#106 + 594 x(107)#107 + 297 x(108)#108 + 762 x(109)#109
      + 424 x(110)#110 + 757 x(111)#111 + 999 x(112)#112 + 939 x(113)#113
      + 647 x(114)#114 + 814 x(115)#115 + 772 x(116)#116 + 488 x(117)#117
      + 878 x(118)#118 + 632 x(119)#119 + 1034 x(120)#120 + 709 x(121)#121
      + 552 x(122)#122 + 669 x(123)#123 + 1039 x(124)#124 + 789 x(125)#125
      + 959 x(126)#126 + 905 x(127)#127 + 1009 x(128)#128 + 755 x(129)#129
      + 559 x(130)#130 + 424 x(131)#131 + 748 x(132)#132 + 860 x(133)#133
      + 800 x(134)#134 + 1146 x(135)#135 + 418 x(136)#136 + 789 x(137)#137
      + 721 x(138)#138 + 757 x(139)#139 + 1107 x(140)#140 + 878 x(141)#141
      + 850 x(142)#142 + 816 x(143)#143 + 724 x(144)#144 + 1011 x(145)#145
      + 742 x(146)#146 + 541 x(147)#147 + 766 x(148)#148 + 739 x(149)#149
      + 536 x(150)#150 + 697 x(151)#151 + 494 x(152)#152 + 839 x(153)#153
      + 417 x(154)#154 + 644 x(155)#155 + 756 x(156)#156 + 511 x(157)#157
      + 913 x(158)#158 + 678 x(159)#159 + 698 x(160)#160 + 407 x(161)#161
      + 815 x(162)#162 + 823 x(163)#163 + 743 x(164)#164 + 945 x(165)#165
      + 1055 x(166)#166 + 472 x(167)#167 + 947 x(168)#168 + 386 x(169)#169
      + 1011 x(170)#170 + 1121 x(171)#171 + 886 x(172)#172 + 1055 x(173)#173
      + 842 x(174)#174 + 691 x(175)#175 + 389 x(176)#176 + 522 x(177)#177
      + 790 x(178)#178 + 886 x(179)#179 + 500 x(180)#180 + 1018 x(181)#181
      + 650 x(182)#182 + 663 x(183)#183 + 640 x(184)#184 + 909 x(185)#185
      + 602 x(186)#186 + 590 x(187)#187 + 747 x(188)#188 + 465 x(189)#189
      + 714 x(190)#190 + 615 x(191)#191 + 806 x(192)#192 + 829 x(193)#193
      + 946 x(194)#194 + 965 x(195)#195 + 633 x(196)#196 + 912 x(197)#197
      + 966 x(198)#198 + 525 x(199)#199 + 793 x(200)#200 + 728 x(201)#201
      + 717 x(202)#202 + 681 x(203)#203 + 821 x(204)#204 + 892 x(205)#205
      + 452 x(206)#206 + 561 x(207)#207 + 393 x(208)#208 + 524 x(209)#209
      + 823 x(210)#210 + 658 x(211)#211 + 680 x(212)#212 + 814 x(213)#213
      + 1091 x(214)#214 + 668 x(215)#215 + 650 x(216)#216 + 315 x(217)#217
      + 943 x(218)#218 + 830 x(219)#219 + 586 x(220)#220 + 615 x(221)#221
      + 1039 x(222)#222 + 655 x(223)#223 + 645 x(224)#224 + 759 x(225)#225
      + 890 x(226)#226 + 805 x(227)#227 + 1010 x(228)#228 + 635 x(229)#229
      + 491 x(230)#230 + 855 x(231)#231 + 634 x(232)#232 + 534 x(233)#233
      + 1076 x(234)#234 + 276 x(235)#235 + 536 x(236)#236 + 644 x(237)#237
      + 761 x(238)#238 + 893 x(239)#239 + 743 x(240)#240 + 410 x(241)#241
      + 553 x(242)#242 + 797 x(243)#243 + 714 x(244)#244 + 734 x(245)#245
      + 734 x(246)#246 + 773 x(247)#247 + 745 x(248)#248 + 378 x(249)#249
Subject To
 c1: 838 x(0)#0 + 379 x(1)#1 + 403 x(2)#2 + 772 x(3)#3 + 84 x(4)#4 + 758 x(5)#5
     + 290 x(6)#6 + 242 x(7)#7 + 445 x(8)#8 + 878 x(9)#9 + 86 x(10)#10
     + 788 x(11)#11 + 133 x(12)#12 + 13 x(13)#13 + 980 x(14)#14 + 768 x(15)#15
     + 882 x(16)#16 + 999 x(17)#17 + 430 x(18)#18 + 981 x(19)#19 + 17 x(20)#20
     + 731 x(21)#21 + 866 x(22)#22 + 813 x(23)#23 + 691 x(24)#24 + 125 x(25)#25
     + 445 x(26)#26 + 433 x(27)#27 + 394 x(28)#28 + 989 x(29)#29 + 677 x(30)#30
     + 96 x(31)#31 + 974 x(32)#32 + 686 x(33)#33 + 488 x(34)#34 + 183 x(35)#35
     + 381 x(36)#36 + 286 x(37)#37 + 456 x(38)#38 + 615 x(39)#39 + 478 x(40)#40
     + 71 x(41)#41 + 83 x(42)#42 + 290 x(43)#43 + 308 x(44)#44 + 410 x(45)#45
     + 612 x(46)#46 + 811 x(47)#47 + 891 x(48)#48 + 463 x(49)#49 + 803 x(50)#50
     + 48 x(51)#51 + 932 x(52)#52 + 220 x(53)#53 + 93 x(54)#54 + 33 x(55)#55
     + 193 x(56)#56 + 324 x(57)#57 + 452 x(58)#58 + 6 x(59)#59 + 159 x(60)#60
     + 858 x(61)#61 + 636 x(62)#62 + 602 x(63)#63 + 670 x(64)#64 + 265 x(65)#65
     + 667 x(66)#66 + 217 x(67)#67 + 442 x(68)#68 + 566 x(69)#69 + 214 x(70)#70
     + 386 x(71)#71 + 7 x(72)#72 + 888 x(73)#73 + 906 x(74)#74 + 300 x(75)#75
     + 6 x(76)#76 + 173 x(77)#77 + x(78)#78 + 282 x(79)#79 + 33 x(80)#80
     + 684 x(81)#81 + 489 x(82)#82 + 270 x(83)#83 + 288 x(84)#84 + 258 x(85)#85
     + 796 x(86)#86 + 224 x(87)#87 + 2 x(88)#88 + 381 x(89)#89 + 529 x(90)#90
     + 635 x(91)#91 + 275 x(92)#92 + 746 x(93)#93 + 485 x(94)#94 + 307 x(95)#95
     + 840 x(96)#96 + 263 x(97)#97 + 250 x(98)#98 + 105 x(99)#99
     + 443 x(100)#100 + 39 x(101)#101 + 419 x(102)#102 + 306 x(103)#103
     + 230 x(104)#104 + 553 x(105)#105 + 188 x(106)#106 + 659 x(107)#107
     + 745 x(108)#108 + 959 x(109)#109 + 844 x(110)#110 + 141 x(111)#111
     + 909 x(112)#112 + 239 x(113)#113 + 624 x(114)#114 + 368 x(115)#115
     + 524 x(116)#116 + 60 x(117)#117 + 854 x(118)#118 + 200 x(119)#119
     + 390 x(120)#120 + 570 x(121)#121 + 54 x(122)#122 + 34 x(123)#123
     + 605 x(124)#124 + 932 x(125)#125 + 168 x(126)#126 + 621 x(127)#127
     + 771 x(128)#128 + 685 x(129)#129 + 429 x(130)#130 + 57 x(131)#131
     + 320 x(132)#132 + 392 x(133)#133 + 816 x(134)#134 + 720 x(135)#135
     + 725 x(136)#136 + 152 x(137)#137 + 49 x(138)#138 + 415 x(139)#139
     + 503 x(140)#140 + 743 x(141)#141 + 101 x(142)#142 + 475 x(143)#143
     + 957 x(144)#144 + 640 x(145)#145 + 223 x(146)#146 + 36 x(147)#147
     + 769 x(148)#148 + 859 x(149)#149 + 484 x(150)#150 + 602 x(151)#151
     + 702 x(152)#152 + 867 x(153)#153 + 513 x(154)#154 + 585 x(155)#155
     + 5 x(156)#156 + 16 x(157)#157 + 661 x(158)#158 + 79 x(159)#159
     + 287 x(160)#160 + 13 x(161)#161 + 278 x(162)#162 + 791 x(163)#163
     + 625 x(164)#164 + 170 x(165)#165 + 21 x(166)#166 + 333 x(167)#167
     + 371 x(168)#168 + 712 x(169)#169 + 880 x(170)#170 + 360 x(171)#171
     + 712 x(172)#172 + 982 x(173)#173 + 995 x(174)#174 + 502 x(175)#175
     + 155 x(176)#176 + 797 x(177)#177 + 414 x(178)#178 + 715 x(179)#179
     + 837 x(180)#180 + 670 x(181)#181 + 629 x(182)#182 + 663 x(183)#183
     + 352 x(184)#184 + 111 x(185)#185 + 810 x(186)#186 + 722 x(187)#187
     + 483 x(188)#188 + 151 x(189)#189 + 203 x(190)#190 + 40 x(191)#191
     + 284 x(192)#192 + 127 x(193)#193 + 979 x(194)#194 + 701 x(195)#195
     + 439 x(196)#196 + 164 x(197)#197 + 841 x(198)#198 + 439 x(199)#199
     + 889 x(200)#200 + 190 x(201)#201 + 562 x(202)#202 + 262 x(203)#203
     + 490 x(204)#204 + 987 x(205)#205 + 15 x(206)#206 + 492 x(207)#207
     + 550 x(208)#208 + 25 x(209)#209 + 207 x(210)#210 + 53 x(211)#211
     + 2 x(212)#212 + 597 x(213)#213 + 498 x(214)#214 + 509 x(215)#215
     + 830 x(216)#216 + 78 x(217)#217 + 963 x(218)#218 + 547 x(219)#219
     + 272 x(220)#220 + 272 x(221)#221 + 995 x(222)#222 + 458 x(223)#223
     + 730 x(224)#224 + 770 x(225)#225 + 901 x(226)#226 + 689 x(227)#227
     + 225 x(228)#228 + 719 x(229)#229 + 581 x(230)#230 + 927 x(231)#231
     + 765 x(232)#232 + 180 x(233)#233 + 783 x(234)#234 + 329 x(235)#235
     + 183 x(236)#236 + 318 x(237)#237 + 145 x(238)#238 + 847 x(239)#239
     + 798 x(240)#240 + 569 x(241)#241 + 24 x(242)#242 + 210 x(243)#243
     + 455 x(244)#244 + 993 x(245)#245 + 259 x(246)#246 + 325 x(247)#247
     + 927 x(248)#248 + 945 x(249)#249 <= 29562
 c2: 866 x(0)#0 + 142 x(1)#1 + 754 x(2)#2 + 564 x(3)#3 + 805 x(4)#4
     + 179 x(5)#5 + 666 x(6)#6 + 926 x(7)#7 + 219 x(8)#8 + 637 x(9)#9
     + 671 x(10)#10 + 730 x(11)#11 + 113 x(12)#12 + 813 x(13)#13 + 97 x(14)#14
     + 442 x(15)#15 + 878 x(16)#16 + 281 x(17)#17 + 749 x(18)#18 + 320 x(19)#19
     + 632 x(20)#20 + 325 x(21)#21 + 323 x(22)#22 + 80 x(23)#23 + 634 x(24)#24
     + 17 x(25)#25 + 844 x(26)#26 + 761 x(27)#27 + 184 x(28)#28 + 655 x(29)#29
     + 276 x(30)#30 + 591 x(31)#31 + 832 x(32)#32 + 97 x(33)#33 + 843 x(34)#34
     + 298 x(35)#35 + 128 x(36)#36 + 108 x(37)#37 + 971 x(38)#38 + 676 x(39)#39
     + 830 x(40)#40 + 631 x(41)#41 + 921 x(42)#42 + 341 x(43)#43 + 268 x(44)#44
     + 938 x(45)#45 + 51 x(46)#46 + 671 x(47)#47 + 601 x(48)#48 + 46 x(49)#49
     + 446 x(50)#50 + 656 x(51)#51 + 222 x(52)#52 + 512 x(53)#53 + 925 x(54)#54
     + 371 x(55)#55 + 220 x(56)#56 + 820 x(57)#57 + 809 x(58)#58 + 822 x(59)#59
     + 200 x(60)#60 + 171 x(61)#61 + 579 x(62)#62 + 993 x(63)#63 + 516 x(64)#64
     + 213 x(65)#65 + 298 x(66)#66 + 531 x(67)#67 + 725 x(68)#68 + 510 x(69)#69
     + 61 x(70)#70 + 803 x(71)#71 + 206 x(72)#72 + 504 x(73)#73 + 271 x(74)#74
     + 17 x(75)#75 + 375 x(76)#76 + 268 x(77)#77 + 869 x(78)#78 + 963 x(79)#79
     + 813 x(80)#80 + 63 x(81)#81 + 913 x(82)#82 + 7 x(83)#83 + 688 x(84)#84
     + 350 x(85)#85 + 173 x(86)#86 + 196 x(87)#87 + 311 x(88)#88 + 706 x(89)#89
     + 374 x(90)#90 + 415 x(91)#91 + 804 x(92)#92 + 137 x(93)#93 + 78 x(94)#94
     + 598 x(95)#95 + 223 x(96)#96 + 267 x(97)#97 + 639 x(98)#98 + 565 x(99)#99
     + 851 x(100)#100 + 543 x(101)#101 + 424 x(102)#102 + 260 x(103)#103
     + 699 x(104)#104 + 296 x(105)#105 + 10 x(106)#106 + 773 x(107)#107
     + 98 x(108)#108 + 364 x(109)#109 + 327 x(110)#110 + 583 x(111)#111
     + 493 x(112)#112 + 446 x(113)#113 + 479 x(114)#114 + 372 x(115)#115
     + 537 x(116)#116 + 144 x(117)#117 + 241 x(118)#118 + 171 x(119)#119
     + 619 x(120)#120 + 666 x(121)#121 + 20 x(122)#122 + 564 x(123)#123
     + 756 x(124)#124 + 641 x(125)#125 + 388 x(126)#126 + 254 x(127)#127
     + 137 x(128)#128 + 9 x(129)#129 + 307 x(130)#130 + 27 x(131)#131
     + 28 x(132)#132 + 656 x(133)#133 + 924 x(134)#134 + 630 x(135)#135
     + 308 x(136)#136 + 559 x(137)#137 + 112 x(138)#138 + 874 x(139)#139
     + 757 x(140)#140 + 378 x(141)#141 + 807 x(142)#142 + 194 x(143)#143
     + 263 x(144)#144 + 586 x(145)#145 + 462 x(146)#146 + 232 x(147)#147
     + 535 x(148)#148 + 326 x(149)#149 + 843 x(150)#150 + 614 x(151)#151
     + 200 x(152)#152 + 510 x(153)#153 + 450 x(154)#154 + 310 x(155)#155
     + 775 x(156)#156 + 899 x(157)#157 + 893 x(158)#158 + 210 x(159)#159
     + 321 x(160)#160 + 168 x(161)#161 + 196 x(162)#162 + 859 x(163)#163
     + 806 x(164)#164 + 425 x(165)#165 + 658 x(166)#166 + 202 x(167)#167
     + 450 x(168)#168 + 285 x(169)#169 + 707 x(170)#170 + 903 x(171)#171
     + 239 x(172)#172 + 821 x(173)#173 + 767 x(174)#174 + 397 x(175)#175
     + 396 x(176)#176 + 546 x(177)#177 + 336 x(178)#178 + 154 x(179)#179
     + 251 x(180)#180 + 616 x(181)#181 + 67 x(182)#182 + 248 x(183)#183
     + 757 x(184)#184 + 717 x(185)#185 + 288 x(186)#186 + 13 x(187)#187
     + 382 x(188)#188 + 719 x(189)#189 + 585 x(190)#190 + 882 x(191)#191
     + 489 x(192)#192 + 448 x(193)#193 + 660 x(194)#194 + 717 x(195)#195
     + 697 x(196)#196 + 554 x(197)#197 + 865 x(198)#198 + 127 x(199)#199
     + 117 x(200)#200 + 210 x(201)#201 + 914 x(202)#202 + 229 x(203)#203
     + 697 x(204)#204 + 799 x(205)#205 + 429 x(206)#206 + 423 x(207)#207
     + 43 x(208)#208 + 672 x(209)#209 + 796 x(210)#210 + 491 x(211)#211
     + 212 x(212)#212 + 862 x(213)#213 + 767 x(214)#214 + 726 x(215)#215
     + 107 x(216)#216 + 510 x(217)#217 + 614 x(218)#218 + 48 x(219)#219
     + 593 x(220)#220 + 269 x(221)#221 + 760 x(222)#222 + 853 x(223)#223
     + 231 x(224)#224 + 529 x(225)#225 + 202 x(226)#226 + 114 x(227)#227
     + 783 x(228)#228 + 803 x(229)#229 + 88 x(230)#230 + 261 x(231)#231
     + 948 x(232)#232 + 278 x(233)#233 + 773 x(234)#234 + 3 x(235)#235
     + 778 x(236)#236 + 775 x(237)#237 + 931 x(238)#238 + 209 x(239)#239
     + 469 x(240)#240 + 746 x(241)#241 + 458 x(242)#242 + 378 x(243)#243
     + 444 x(244)#244 + 808 x(245)#245 + 872 x(246)#246 + 339 x(247)#247
     + 482 x(248)#248 + 90 x(249)#249 <= 30027
 c3: 196 x(0)#0 + 343 x(1)#1 + 151 x(2)#2 + 308 x(3)#3 + 19 x(4)#4 + 643 x(5)#5
     + 251 x(6)#6 + 834 x(7)#7 + 318 x(8)#8 + 809 x(9)#9 + 566 x(10)#10
     + 60 x(11)#11 + 642 x(12)#12 + 629 x(13)#13 + 232 x(14)#14 + 177 x(15)#15
     + 549 x(16)#16 + 930 x(17)#17 + 92 x(18)#18 + 573 x(19)#19 + 873 x(20)#20
     + 90 x(21)#21 + 586 x(22)#22 + 297 x(23)#23 + 930 x(24)#24 + 967 x(25)#25
     + 305 x(26)#26 + 254 x(27)#27 + 919 x(28)#28 + 540 x(29)#29 + 225 x(30)#30
     + 98 x(31)#31 + 259 x(32)#32 + 379 x(33)#33 + 138 x(34)#34 + 958 x(35)#35
     + 568 x(36)#36 + 405 x(37)#37 + 902 x(38)#38 + 997 x(39)#39 + 424 x(40)#40
     + 883 x(41)#41 + 655 x(42)#42 + 805 x(43)#43 + 980 x(44)#44 + 887 x(45)#45
     + 904 x(46)#46 + 339 x(47)#47 + 425 x(48)#48 + 729 x(49)#49 + 580 x(50)#50
     + 608 x(51)#51 + 765 x(52)#52 + 34 x(53)#53 + 186 x(54)#54 + 62 x(55)#55
     + 436 x(56)#56 + 731 x(57)#57 + 811 x(58)#58 + 824 x(59)#59 + 979 x(60)#60
     + 491 x(61)#61 + 561 x(62)#62 + 988 x(63)#63 + 713 x(64)#64 + 115 x(65)#65
     + 287 x(66)#66 + 930 x(67)#67 + 153 x(68)#68 + 690 x(69)#69 + 416 x(70)#70
     + 857 x(71)#71 + 393 x(72)#72 + 199 x(73)#73 + 849 x(74)#74 + 646 x(75)#75
     + 95 x(76)#76 + 625 x(77)#77 + 246 x(78)#78 + 636 x(79)#79 + 272 x(80)#80
     + 672 x(81)#81 + 149 x(82)#82 + 890 x(83)#83 + 120 x(84)#84 + 482 x(85)#85
     + 940 x(86)#86 + 287 x(87)#87 + 729 x(88)#88 + 925 x(89)#89 + 315 x(90)#90
     + 574 x(91)#91 + 964 x(92)#92 + 448 x(93)#93 + 362 x(94)#94 + 585 x(95)#95
     + 160 x(96)#96 + 135 x(97)#97 + 673 x(98)#98 + 527 x(99)#99
     + 357 x(100)#100 + 290 x(101)#101 + 905 x(102)#102 + 534 x(103)#103
     + 784 x(104)#104 + 637 x(105)#105 + 981 x(106)#106 + 15 x(107)#107
     + 52 x(108)#108 + 838 x(109)#109 + 184 x(110)#110 + 683 x(111)#111
     + 956 x(112)#112 + 816 x(113)#113 + 733 x(114)#114 + 553 x(115)#115
     + 59 x(116)#116 + 737 x(117)#117 + 401 x(118)#118 + 661 x(119)#119
     + 712 x(120)#120 + 822 x(121)#121 + 897 x(122)#122 + 847 x(123)#123
     + 90 x(124)#124 + 138 x(125)#125 + 611 x(126)#126 + 529 x(127)#127
     + 655 x(128)#128 + 504 x(129)#129 + 94 x(130)#130 + 719 x(131)#131
     + 837 x(132)#132 + 558 x(133)#133 + 128 x(134)#134 + 819 x(135)#135
     + 845 x(136)#136 + 630 x(137)#137 + 379 x(138)#138 + 167 x(139)#139
     + 986 x(140)#140 + 451 x(141)#141 + 527 x(142)#142 + 74 x(143)#143
     + 957 x(144)#144 + 536 x(145)#145 + 229 x(146)#146 + 791 x(147)#147
     + 541 x(148)#148 + 40 x(149)#149 + 769 x(150)#150 + 616 x(151)#151
     + 977 x(152)#152 + 13 x(153)#153 + 133 x(154)#154 + 117 x(155)#155
     + 414 x(156)#156 + 689 x(157)#157 + 709 x(158)#158 + 364 x(159)#159
     + 711 x(160)#160 + 70 x(161)#161 + 847 x(162)#162 + 224 x(163)#163
     + 551 x(164)#164 + 854 x(165)#165 + 958 x(166)#166 + 786 x(167)#167
     + 816 x(168)#168 + 161 x(169)#169 + 403 x(170)#170 + 792 x(171)#171
     + 337 x(172)#172 + 794 x(173)#173 + 730 x(174)#174 + 376 x(175)#175
     + 281 x(176)#176 + 689 x(177)#177 + 869 x(178)#178 + 458 x(179)#179
     + 294 x(180)#180 + 30 x(181)#181 + 123 x(182)#182 + 560 x(183)#183
     + 340 x(184)#184 + 874 x(185)#185 + 631 x(186)#186 + 679 x(187)#187
     + 526 x(188)#188 + 862 x(189)#189 + 168 x(190)#190 + 682 x(191)#191
     + 758 x(192)#192 + 768 x(193)#193 + 259 x(194)#194 + 195 x(195)#195
     + 533 x(196)#196 + 633 x(197)#197 + 915 x(198)#198 + 409 x(199)#199
     + 553 x(200)#200 + 231 x(201)#201 + 140 x(202)#202 + 96 x(203)#203
     + 385 x(204)#204 + 363 x(205)#205 + 130 x(206)#206 + 132 x(207)#207
     + 321 x(208)#208 + 450 x(209)#209 + 76 x(210)#210 + 467 x(211)#211
     + 654 x(212)#212 + 52 x(213)#213 + 888 x(214)#214 + 877 x(215)#215
     + 537 x(216)#216 + 30 x(217)#217 + 494 x(218)#218 + 492 x(219)#219
     + 396 x(220)#220 + 888 x(221)#221 + 611 x(222)#222 + 747 x(223)#223
     + 454 x(224)#224 + 782 x(225)#225 + 924 x(226)#226 + 841 x(227)#227
     + 654 x(228)#228 + 55 x(229)#229 + 630 x(230)#230 + 482 x(231)#231
     + 672 x(232)#232 + 391 x(233)#233 + 711 x(234)#234 + 185 x(235)#235
     + 483 x(236)#236 + 285 x(237)#237 + 175 x(238)#238 + 631 x(239)#239
     + 462 x(240)#240 + 316 x(241)#241 + 308 x(242)#242 + 322 x(243)#243
     + 494 x(244)#244 + 313 x(245)#245 + 440 x(246)#246 + 159 x(247)#247
     + 761 x(248)#248 + 193 x(249)#249 <= 32082
 c4: 322 x(0)#0 + 38 x(1)#1 + 759 x(2)#2 + 864 x(3)#3 + 80 x(4)#4 + 335 x(5)#5
     + 606 x(6)#6 + 849 x(7)#7 + 391 x(8)#8 + 496 x(9)#9 + 90 x(10)#10
     + 681 x(11)#11 + 920 x(12)#12 + 931 x(13)#13 + 478 x(14)#14 + 746 x(15)#15
     + 963 x(16)#16 + 521 x(17)#17 + 53 x(18)#18 + 928 x(19)#19 + 960 x(20)#20
     + 834 x(21)#21 + 7 x(22)#22 + 30 x(23)#23 + 514 x(24)#24 + 192 x(25)#25
     + 61 x(26)#26 + 726 x(27)#27 + 730 x(28)#28 + 510 x(29)#29 + 427 x(30)#30
     + 858 x(31)#31 + 517 x(32)#32 + 691 x(33)#33 + 191 x(34)#34 + 821 x(35)#35
     + 724 x(36)#36 + 894 x(37)#37 + 14 x(38)#38 + 256 x(39)#39 + 15 x(40)#40
     + 857 x(41)#41 + 89 x(42)#42 + 470 x(43)#43 + 409 x(44)#44 + 734 x(45)#45
     + 426 x(46)#46 + 647 x(47)#47 + 778 x(48)#48 + 626 x(49)#49 + 57 x(50)#50
     + 989 x(51)#51 + 231 x(52)#52 + 979 x(53)#53 + 948 x(54)#54 + 120 x(55)#55
     + 449 x(56)#56 + 763 x(57)#57 + 370 x(58)#58 + 66 x(59)#59 + 359 x(60)#60
     + 242 x(61)#61 + 335 x(62)#62 + 537 x(63)#63 + 669 x(64)#64 + 956 x(65)#65
     + 341 x(66)#66 + 192 x(67)#67 + 114 x(68)#68 + 920 x(69)#69 + 398 x(70)#70
     + 308 x(71)#71 + 410 x(72)#72 + 908 x(73)#73 + 972 x(74)#74 + 87 x(75)#75
     + 904 x(76)#76 + 73 x(77)#77 + 964 x(78)#78 + 535 x(79)#79 + 298 x(80)#80
     + 146 x(81)#81 + 830 x(82)#82 + 635 x(83)#83 + 73 x(84)#84 + 283 x(85)#85
     + 734 x(86)#86 + 203 x(87)#87 + 55 x(88)#88 + 156 x(89)#89 + 47 x(90)#90
     + 581 x(91)#91 + 575 x(92)#92 + 874 x(93)#93 + 509 x(94)#94 + 63 x(95)#95
     + 939 x(96)#96 + 626 x(97)#97 + 695 x(98)#98 + 344 x(99)#99
     + 392 x(100)#100 + 348 x(101)#101 + 934 x(102)#102 + 860 x(103)#103
     + 921 x(104)#104 + 833 x(105)#105 + 129 x(106)#106 + 827 x(107)#107
     + 95 x(108)#108 + 573 x(109)#109 + 228 x(110)#110 + 865 x(111)#111
     + 163 x(112)#112 + 858 x(113)#113 + 244 x(114)#114 + 667 x(115)#115
     + 225 x(116)#116 + 170 x(117)#117 + 267 x(118)#118 + 606 x(119)#119
     + 845 x(120)#120 + 11 x(121)#121 + 484 x(122)#122 + 152 x(123)#123
     + 738 x(124)#124 + 440 x(125)#125 + 965 x(126)#126 + 747 x(127)#127
     + 982 x(128)#128 + 387 x(129)#129 + 511 x(130)#130 + 813 x(131)#131
     + 887 x(132)#132 + 324 x(133)#133 + 719 x(134)#134 + 785 x(135)#135
     + 156 x(136)#136 + 568 x(137)#137 + 26 x(138)#138 + 155 x(139)#139
     + 779 x(140)#140 + 370 x(141)#141 + 506 x(142)#142 + 877 x(143)#143
     + 510 x(144)#144 + 594 x(145)#145 + 475 x(146)#146 + 820 x(147)#147
     + 837 x(148)#148 + 273 x(149)#149 + 141 x(150)#150 + 282 x(151)#151
     + 58 x(152)#152 + 400 x(153)#153 + 447 x(154)#154 + 58 x(155)#155
     + 855 x(156)#156 + 178 x(157)#157 + 335 x(158)#158 + 758 x(159)#159
     + 415 x(160)#160 + 752 x(161)#161 + 652 x(162)#162 + 1000 x(163)#163
     + 39 x(164)#164 + 271 x(165)#165 + 840 x(166)#166 + 42 x(167)#167
     + 986 x(168)#168 + 481 x(169)#169 + 198 x(170)#170 + 702 x(171)#171
     + 175 x(172)#172 + 576 x(173)#173 + 847 x(174)#174 + 596 x(175)#175
     + 740 x(176)#176 + 315 x(177)#177 + 76 x(178)#178 + 999 x(179)#179
     + 174 x(180)#180 + 734 x(181)#181 + 635 x(182)#182 + 430 x(183)#183
     + 431 x(184)#184 + 682 x(185)#185 + 10 x(186)#186 + 52 x(187)#187
     + 815 x(188)#188 + 306 x(189)#189 + 244 x(190)#190 + 511 x(191)#191
     + 422 x(192)#192 + 129 x(193)#193 + 822 x(194)#194 + 776 x(195)#195
     + 167 x(196)#196 + 516 x(197)#197 + 305 x(198)#198 + 607 x(199)#199
     + 316 x(200)#200 + 996 x(201)#201 + 485 x(202)#202 + 268 x(203)#203
     + 73 x(204)#204 + 279 x(205)#205 + 450 x(206)#206 + 365 x(207)#207
     + 282 x(208)#208 + 339 x(209)#209 + 598 x(210)#210 + 739 x(211)#211
     + 76 x(212)#212 + 674 x(213)#213 + 717 x(214)#214 + 499 x(215)#215
     + 964 x(216)#216 + 347 x(217)#217 + 547 x(218)#218 + 981 x(219)#219
     + 385 x(220)#220 + 14 x(221)#221 + 235 x(222)#222 + 742 x(223)#223
     + 915 x(224)#224 + 750 x(225)#225 + 726 x(226)#226 + 646 x(227)#227
     + 240 x(228)#228 + 437 x(229)#229 + 42 x(230)#230 + 705 x(231)#231
     + 10 x(232)#232 + 896 x(233)#233 + 800 x(234)#234 + 54 x(235)#235
     + 450 x(236)#236 + 775 x(237)#237 + 971 x(238)#238 + 545 x(239)#239
     + 67 x(240)#240 + 43 x(241)#241 + 969 x(242)#242 + 512 x(243)#243
     + 870 x(244)#244 + 652 x(245)#245 + 811 x(246)#246 + 560 x(247)#247
     + 457 x(248)#248 + 242 x(249)#249 <= 31340
 c5: 508 x(0)#0 + 630 x(1)#1 + 214 x(2)#2 + 472 x(3)#3 + 612 x(4)#4
     + 436 x(5)#5 + 69 x(6)#6 + 671 x(7)#7 + 978 x(8)#8 + 281 x(9)#9
     + 337 x(10)#10 + 848 x(11)#11 + 203 x(12)#12 + 415 x(13)#13 + 731 x(14)#14
     + 327 x(15)#15 + 661 x(16)#16 + 195 x(17)#17 + 393 x(18)#18 + 104 x(19)#19
     + 522 x(20)#20 + 511 x(21)#21 + 749 x(22)#22 + 699 x(23)#23 + 653 x(24)#24
     + 959 x(25)#25 + 693 x(26)#26 + 742 x(27)#27 + 565 x(28)#28 + 934 x(29)#29
     + 669 x(30)#30 + 807 x(31)#31 + 949 x(32)#32 + 486 x(33)#33 + 830 x(34)#34
     + 590 x(35)#35 + 527 x(36)#36 + 665 x(37)#37 + 557 x(38)#38 + 76 x(39)#39
     + 428 x(40)#40 + 290 x(41)#41 + 188 x(42)#42 + 542 x(43)#43 + 165 x(44)#44
     + 66 x(45)#45 + 873 x(46)#46 + 256 x(47)#47 + 358 x(48)#48 + 228 x(49)#49
     + 640 x(50)#50 + 514 x(51)#51 + 135 x(52)#52 + 496 x(53)#53 + 16 x(54)#54
     + 170 x(55)#55 + 722 x(56)#56 + 120 x(57)#57 + 329 x(58)#58 + 223 x(59)#59
     + 12 x(60)#60 + 188 x(61)#61 + 393 x(62)#62 + 73 x(63)#63 + 692 x(64)#64
     + 901 x(65)#65 + 641 x(66)#66 + 721 x(67)#67 + 125 x(68)#68 + 747 x(69)#69
     + 82 x(70)#70 + 277 x(71)#71 + 299 x(72)#72 + 144 x(73)#73 + 399 x(74)#74
     + 56 x(75)#75 + 919 x(76)#76 + 769 x(77)#77 + 89 x(78)#78 + 314 x(79)#79
     + 554 x(80)#80 + 88 x(81)#81 + 37 x(82)#82 + 764 x(83)#83 + 67 x(84)#84
     + 211 x(85)#85 + 590 x(86)#86 + 914 x(87)#87 + 785 x(88)#88 + 969 x(89)#89
     + 209 x(90)#90 + 119 x(91)#91 + 943 x(92)#92 + 746 x(93)#93 + 149 x(94)#94
     + 202 x(95)#95 + 170 x(96)#96 + 164 x(97)#97 + 238 x(98)#98 + 498 x(99)#99
     + 540 x(100)#100 + 325 x(101)#101 + 846 x(102)#102 + 874 x(103)#103
     + 887 x(104)#104 + 555 x(105)#105 + 458 x(106)#106 + 132 x(107)#107
     + 216 x(108)#108 + 957 x(109)#109 + 70 x(110)#110 + 423 x(111)#111
     + 913 x(112)#112 + 648 x(113)#113 + 848 x(114)#114 + 288 x(115)#115
     + 492 x(116)#116 + 152 x(117)#117 + 149 x(118)#118 + 746 x(119)#119
     + 520 x(120)#120 + 885 x(121)#121 + 646 x(122)#122 + 894 x(123)#123
     + 534 x(124)#124 + 49 x(125)#125 + 488 x(126)#126 + 408 x(127)#127
     + 352 x(128)#128 + 730 x(129)#129 + 254 x(130)#130 + 455 x(131)#131
     + 758 x(132)#132 + 284 x(133)#133 + 311 x(134)#134 + 898 x(135)#135
     + 24 x(136)#136 + 332 x(137)#137 + 967 x(138)#138 + 491 x(139)#139
     + 499 x(140)#140 + 845 x(141)#141 + 230 x(142)#142 + 629 x(143)#143
     + 243 x(144)#144 + 715 x(145)#145 + 915 x(146)#146 + 565 x(147)#147
     + 812 x(148)#148 + 672 x(149)#149 + 406 x(150)#150 + 842 x(151)#151
     + 449 x(152)#152 + 873 x(153)#153 + 296 x(154)#154 + 59 x(155)#155
     + 953 x(156)#156 + 552 x(157)#157 + 995 x(158)#158 + 573 x(159)#159
     + 813 x(160)#160 + 688 x(161)#161 + 41 x(162)#162 + 177 x(163)#163
     + 58 x(164)#164 + 602 x(165)#165 + 669 x(166)#166 + 671 x(167)#167
     + 382 x(168)#168 + 219 x(169)#169 + 708 x(170)#170 + 597 x(171)#171
     + 893 x(172)#172 + 897 x(173)#173 + 250 x(174)#174 + 342 x(175)#175
     + 353 x(176)#176 + 193 x(177)#177 + 492 x(178)#178 + 746 x(179)#179
     + 346 x(180)#180 + 834 x(181)#181 + 104 x(182)#182 + 433 x(183)#183
     + 163 x(184)#184 + 183 x(185)#185 + 766 x(186)#186 + 264 x(187)#187
     + 289 x(188)#188 + 32 x(189)#189 + 446 x(190)#190 + 863 x(191)#191
     + 433 x(192)#192 + 829 x(193)#193 + 526 x(194)#194 + 456 x(195)#195
     + 336 x(196)#196 + 503 x(197)#197 + 146 x(198)#198 + 872 x(199)#199
     + 706 x(200)#200 + 126 x(201)#201 + 810 x(202)#202 + 122 x(203)#203
     + 679 x(204)#204 + 666 x(205)#205 + 73 x(206)#206 + 792 x(207)#207
     + 193 x(208)#208 + 459 x(209)#209 + 251 x(210)#210 + 961 x(211)#211
     + 871 x(212)#212 + 791 x(213)#213 + 181 x(214)#214 + 185 x(215)#215
     + 790 x(216)#216 + 159 x(217)#217 + 241 x(218)#218 + 203 x(219)#219
     + 852 x(220)#220 + 280 x(221)#221 + 184 x(222)#222 + 343 x(223)#223
     + 164 x(224)#224 + 346 x(225)#225 + 286 x(226)#226 + 756 x(227)#227
     + 713 x(228)#228 + 530 x(229)#229 + 996 x(230)#230 + 308 x(231)#231
     + 43 x(232)#232 + 904 x(233)#233 + 48 x(234)#234 + 482 x(235)#235
     + 666 x(236)#236 + 720 x(237)#237 + 909 x(238)#238 + 572 x(239)#239
     + 485 x(240)#240 + 288 x(241)#241 + 442 x(242)#242 + 80 x(243)#243
     + 617 x(244)#244 + 710 x(245)#245 + 138 x(246)#246 + 512 x(247)#247
     + 299 x(248)#248 + 80 x(249)#249 <= 29959
Bounds
 0 <= x(0)#0 <= 1
 0 <= x(1)#1 <= 1
 0 <= x(2)#2 <= 1
 0 <= x(3)#3 <= 1
 0 <= x(4)#4 <= 1
 0 <= x(5)#5 <= 1
 0 <= x(6)#6 <= 1
 0 <= x(7)#7 <= 1
 0 <= x(8)#8 <= 1
 0 <= x(9)#9 <= 1
 0 <= x(10)#10 <= 1
 0 <= x(11)#11 <= 1
 0 <= x(12)#12 <= 1
 0 <= x(13)#13 <= 1
 0 <= x(14)#14 <= 1
 0 <= x(15)#15 <= 1
 0 <= x(16)#16 <= 1
 0 <= x(17)#17 <= 1
 0 <= x(18)#18 <= 1
 0 <= x(19)#19 <= 1
 0 <= x(20)#20 <= 1
 0 <= x(21)#21 <= 1
 0 <= x(22)#22 <= 1
 0 <= x(23)#23 <= 1
 0 <= x(24)#24 <= 1
 0 <= x(25)#25 <= 1
 0 <= x(26)#26 <= 1
 0 <= x(27)#27 <= 1
 0 <= x(28)#28 <= 1
 0 <= x(29)#29 <= 1
 0 <= x(30)#30 <= 1
 0 <= x(31)#31 <= 1
 0 <= x(32)#32 <= 1
 0 <= x(33)#33 <= 1
 0 <= x(34)#34 <= 1
 0 <= x(35)#35 <= 1
 0 <= x(36)#36 <= 1
 0 <= x(37)#37 <= 1
 0 <= x(38)#38 <= 1
 0 <= x(39)#39 <= 1
 0 <= x(40)#40 <= 1
 0 <= x(41)#41 <= 1
 0 <= x(42)#42 <= 1
 0 <= x(43)#43 <= 1
 0 <= x(44)#44 <= 1
 0 <= x(45)#45 <= 1
 0 <= x(46)#46 <= 1
 0 <= x(47)#47 <= 1
 0 <= x(48)#48 <= 1
 0 <= x(49)#49 <= 1
 0 <= x(50)#50 <= 1
 0 <= x(51)#51 <= 1
 0 <= x(52)#52 <= 1
 0 <= x(53)#53 <= 1
 0 <= x(54)#54 <= 1
 0 <= x(55)#55 <= 1
 0 <= x(56)#56 <= 1
 0 <= x(57)#57 <= 1
 0 <= x(58)#58 <= 1
 0 <= x(59)#59 <= 1
 0 <= x(60)#60 <= 1
 0 <= x(61)#61 <= 1
 0 <= x(62)#62 <= 1
 0 <= x(63)#63 <= 1
 0 <= x(64)#64 <= 1
 0 <= x(65)#65 <= 1
 0 <= x(66)#66 <= 1
 0 <= x(67)#67 <= 1
 0 <= x(68)#68 <= 1
 0 <= x(69)#69 <= 1
 0 <= x(70)#70 <= 1
 0 <= x(71)#71 <= 1
 0 <= x(72)#72 <= 1
 0 <= x(73)#73 <= 1
 0 <= x(74)#74 <= 1
 0 <= x(75)#75 <= 1
 0 <= x(76)#76 <= 1
 0 <= x(77)#77 <= 1
 0 <= x(78)#78 <= 1
 0 <= x(79)#79 <= 1
 0 <= x(80)#80 <= 1
 0 <= x(81)#81 <= 1
 0 <= x(82)#82 <= 1
 0 <= x(83)#83 <= 1
 0 <= x(84)#84 <= 1
 0 <= x(85)#85 <= 1
 0 <= x(86)#86 <= 1
 0 <= x(87)#87 <= 1
 0 <= x(88)#88 <= 1
 0 <= x(89)#89 <= 1
 0 <= x(90)#90 <= 1
 0 <= x(91)#91 <= 1
 0 <= x(92)#92 <= 1
 0 <= x(93)#93 <= 1
 0 <= x(94)#94 <= 1
 0 <= x(95)#95 <= 1
 0 <= x(96)#96 <= 1
 0 <= x(97)#97 <= 1
 0 <= x(98)#98 <= 1
 0 <= x(99)#99 <= 1
 0 <= x(100)#100 <= 1
 0 <= x(101)#101 <= 1
 0 <= x(102)#102 <= 1
 0 <= x(103)#103 <= 1
 0 <= x(104)#104 <= 1
 0 <= x(105)#105 <= 1
 0 <= x(106)#106 <= 1
 0 <= x(107)#107 <= 1
 0 <= x(108)#108 <= 1
 0 <= x(109)#109 <= 1
 0 <= x(110)#110 <= 1
 0 <= x(111)#111 <= 1
 0 <= x(112)#112 <= 1
 0 <= x(113)#113 <= 1
 0 <= x(114)#114 <= 1
 0 <= x(115)#115 <= 1
 0 <= x(116)#116 <= 1
 0 <= x(117)#117 <= 1
 0 <= x(118)#118 <= 1
 0 <= x(119)#119 <= 1
 0 <= x(120)#120 <= 1
 0 <= x(121)#121 <= 1
 0 <= x(122)#122 <= 1
 0 <= x(123)#123 <= 1
 0 <= x(124)#124 <= 1
 0 <= x(125)#125 <= 1
 0 <= x(126)#126 <= 1
 0 <= x(127)#127 <= 1
 0 <= x(128)#128 <= 1
 0 <= x(129)#129 <= 1
 0 <= x(130)#130 <= 1
 0 <= x(131)#131 <= 1
 0 <= x(132)#132 <= 1
 0 <= x(133)#133 <= 1
 0 <= x(134)#134 <= 1
 0 <= x(135)#135 <= 1
 0 <= x(136)#136 <= 1
 0 <= x(137)#137 <= 1
 0 <= x(138)#138 <= 1
 0 <= x(139)#139 <= 1
 0 <= x(140)#140 <= 1
 0 <= x(141)#141 <= 1
 0 <= x(142)#142 <= 1
 0 <= x(143)#143 <= 1
 0 <= x(144)#144 <= 1
 0 <= x(145)#145 <= 1
 0 <= x(146)#146 <= 1
 0 <= x(147)#147 <= 1
 0 <= x(148)#148 <= 1
 0 <= x(149)#149 <= 1
 0 <= x(150)#150 <= 1
 0 <= x(151)#151 <= 1
 0 <= x(152)#152 <= 1
 0 <= x(153)#153 <= 1
 0 <= x(154)#154 <= 1
 0 <= x(155)#155 <= 1
 0 <= x(156)#156 <= 1
 0 <= x(157)#157 <= 1
 0 <= x(158)#158 <= 1
 0 <= x(159)#159 <= 1
 0 <= x(160)#160 <= 1
 0 <= x(161)#161 <= 1
 0 <= x(162)#162 <= 1
 0 <= x(163)#163 <= 1
 0 <= x(164)#164 <= 1
 0 <= x(165)#165 <= 1
 0 <= x(166)#166 <= 1
 0 <= x(167)#167 <= 1
 0 <= x(168)#168 <= 1
 0 <= x(169)#169 <= 1
 0 <= x(170)#170 <= 1
 0 <= x(171)#171 <= 1
 0 <= x(172)#172 <= 1
 0 <= x(173)#173 <= 1
 0 <= x(174)#174 <= 1
 0 <= x(175)#175 <= 1
 0 <= x(176)#176 <= 1
 0 <= x(177)#177 <= 1
 0 <= x(178)#178 <= 1
 0 <= x(179)#179 <= 1
 0 <= x(180)#180 <= 1
 0 <= x(181)#181 <= 1
 0 <= x(182)#182 <= 1
 0 <= x(183)#183 <= 1
 0 <= x(184)#184 <= 1
 0 <= x(185)#185 <= 1
 0 <= x(186)#186 <= 1
 0 <= x(187)#187 <= 1
 0 <= x(188)#188 <= 1
 0 <= x(189)#189 <= 1
 0 <= x(190)#190 <= 1
 0 <= x(191)#191 <= 1
 0 <= x(192)#192 <= 1
 0 <= x(193)#193 <= 1
 0 <= x(194)#194 <= 1
 0 <= x(195)#195 <= 1
 0 <= x(196)#196 <= 1
 0 <= x(197)#197 <= 1
 0 <= x(198)#198 <= 1
 0 <= x(199)#199 <= 1
 0 <= x(200)#200 <= 1
 0 <= x(201)#201 <= 1
 0 <= x(202)#202 <= 1
 0 <= x(203)#203 <= 1
 0 <= x(204)#204 <= 1
 0 <= x(205)#205 <= 1
 0 <= x(206)#206 <= 1
 0 <= x(207)#207 <= 1
 0 <= x(208)#208 <= 1
 0 <= x(209)#209 <= 1
 0 <= x(210)#210 <= 1
 0 <= x(211)#211 <= 1
 0 <= x(212)#212 <= 1
 0 <= x(213)#213 <= 1
 0 <= x(214)#214 <= 1
 0 <= x(215)#215 <= 1
 0 <= x(216)#216 <= 1
 0 <= x(217)#217 <= 1
 0 <= x(218)#218 <= 1
 0 <= x(219)#219 <= 1
 0 <= x(220)#220 <= 1
 0 <= x(221)#221 <= 1
 0 <= x(222)#222 <= 1
 0 <= x(223)#223 <= 1
 0 <= x(224)#224 <= 1
 0 <= x(225)#225 <= 1
 0 <= x(226)#226 <= 1
 0 <= x(227)#227 <= 1
 0 <= x(228)#228 <= 1
 0 <= x(229)#229 <= 1
 0 <= x(230)#230 <= 1
 0 <= x(231)#231 <= 1
 0 <= x(232)#232 <= 1
 0 <= x(233)#233 <= 1
 0 <= x(234)#234 <= 1
 0 <= x(235)#235 <= 1
 0 <= x(236)#236 <= 1
 0 <= x(237)#237 <= 1
 0 <= x(238)#238 <= 1
 0 <= x(239)#239 <= 1
 0 <= x(240)#240 <= 1
 0 <= x(241)#241 <= 1
 0 <= x(242)#242 <= 1
 0 <= x(243)#243 <= 1
 0 <= x(244)#244 <= 1
 0 <= x(245)#245 <= 1
 0 <= x(246)#246 <= 1
 0 <= x(247)#247 <= 1
 0 <= x(248)#248 <= 1
 0 <= x(249)#249 <= 1
Generals
 x(0)#0  x(1)#1  x(2)#2  x(3)#3  x(4)#4  x(5)#5  x(6)#6  x(7)#7  x(8)#8 
 x(9)#9  x(10)#10  x(11)#11  x(12)#12  x(13)#13  x(14)#14  x(15)#15  x(16)#16 
 x(17)#17  x(18)#18  x(19)#19  x(20)#20  x(21)#21  x(22)#22  x(23)#23 
 x(24)#24  x(25)#25  x(26)#26  x(27)#27  x(28)#28  x(29)#29  x(30)#30 
 x(31)#31  x(32)#32  x(33)#33  x(34)#34  x(35)#35  x(36)#36  x(37)#37 
 x(38)#38  x(39)#39  x(40)#40  x(41)#41  x(42)#42  x(43)#43  x(44)#44 
 x(45)#45  x(46)#46  x(47)#47  x(48)#48  x(49)#49  x(50)#50  x(51)#51 
 x(52)#52  x(53)#53  x(54)#54  x(55)#55  x(56)#56  x(57)#57  x(58)#58 
 x(59)#59  x(60)#60  x(61)#61  x(62)#62  x(63)#63  x(64)#64  x(65)#65 
 x(66)#66  x(67)#67  x(68)#68  x(69)#69  x(70)#70  x(71)#71  x(72)#72 
 x(73)#73  x(74)#74  x(75)#75  x(76)#76  x(77)#77  x(78)#78  x(79)#79 
 x(80)#80  x(81)#81  x(82)#82  x(83)#83  x(84)#84  x(85)#85  x(86)#86 
 x(87)#87  x(88)#88  x(89)#89  x(90)#90  x(91)#91  x(92)#92  x(93)#93 
 x(94)#94  x(95)#95  x(96)#96  x(97)#97  x(98)#98  x(99)#99  x(100)#100 
 x(101)#101  x(102)#102  x(103)#103  x(104)#104  x(105)#105  x(106)#106 
 x(107)#107  x(108)#108  x(109)#109  x(110)#110  x(111)#111  x(112)#112 
 x(113)#113  x(114)#114  x(115)#115  x(116)#116  x(117)#117  x(118)#118 
 x(119)#119  x(120)#120  x(121)#121  x(122)#122  x(123)#123  x(124)#124 
 x(125)#125  x(126)#126  x(127)#127  x(128)#128  x(129)#129  x(130)#130 
 x(131)#131  x(132)#132  x(133)#133  x(134)#134  x(135)#135  x(136)#136 
 x(137)#137  x(138)#138  x(139)#139  x(140)#140  x(141)#141  x(142)#142 
 x(143)#143  x(144)#144  x(145)#145  x(146)#146  x(147)#147  x(148)#148 
 x(149)#149  x(150)#150  x(151)#151  x(152)#152  x(153)#153  x(154)#154 
 x(155)#155  x(156)#156  x(157)#157  x(158)#158  x(159)#159  x(160)#160 
 x(161)#161  x(162)#162  x(163)#163  x(164)#164  x(165)#165  x(166)#166 
 x(167)#167  x(168)#168  x(169)#169  x(170)#170  x(171)#171  x(172)#172 
 x(173)#173  x(174)#174  x(175)#175  x(176)#176  x(177)#177  x(178)#178 
 x(179)#179  x(180)#180  x(181)#181  x(182)#182  x(183)#183  x(184)#184 
 x(185)#185  x(186)#186  x(187)#187  x(188)#188  x(189)#189  x(190)#190 
 x(191)#191  x(192)#192  x(193)#193  x(194)#194  x(195)#195  x(196)#196 
 x(197)#197  x(198)#198  x(199)#199  x(200)#200  x(201)#201  x(202)#202 
 x(203)#203  x(204)#204  x(205)#205  x(206)#206  x(207)#207  x(208)#208 
 x(209)#209  x(210)#210  x(211)#211  x(212)#212  x(213)#213  x(214)#214 
 x(215)#215  x(216)#216  x(217)#217  x(218)#218  x(219)#219  x(220)#220 
 x(221)#221  x(222)#222  x(223)#223  x(224)#224  x(225)#225  x(226)#226 
 x(227)#227  x(228)#228  x(229)#229  x(230)#230  x(231)#231  x(232)#232 
 x(233)#233  x(234)#234  x(235)#235  x(236)#236  x(237)#237  x(238)#238 
 x(239)#239  x(240)#240  x(241)#241  x(242)#242  x(243)#243  x(244)#244 
 x(245)#245  x(246)#246  x(247)#247  x(248)#248  x(249)#249 
End
